rcpsp/heur_output_bi_constraints/Log=5/heurj90.txt
encoding rcpsp/j90.sm/j9017_3.sm nv: 362160 nc: 894072 enctime: 14.33
encoding rcpsp/j90.sm/j9017_3.sm nv: 74880 nc: 181857 enctime: 1.42
c File: j9017_3.smnaivebi5.wcnf
c optimal
c final solution cost: 83
c CPU time: 17.524347
s OPTIMUM FOUND

c File: j9017_3.smbi5.wcnf
c optimal
c final solution cost: 83
c CPU time: 0.722981
s OPTIMUM FOUND


rcpsp/heur_output_bi_constraints/Log=5/heurj90.txt
encoding rcpsp/j90.sm/j9017_4.sm nv: 352824 nc: 861261 enctime: 13.20
encoding rcpsp/j90.sm/j9017_4.sm nv: 73932 nc: 177747 enctime: 1.37
c File: j9017_4.smnaivebi5.wcnf
c optimal
c final solution cost: 85
c CPU time: 30.002401
s OPTIMUM FOUND

c File: j9017_4.smbi5.wcnf
c optimal
c final solution cost: 85
c CPU time: 0.577564
s OPTIMUM FOUND


rcpsp/heur_output_bi_constraints/Log=5/heurj90.txt
encoding rcpsp/j90.sm/j9017_5.sm nv: 315324 nc: 772082 enctime: 11.75
encoding rcpsp/j90.sm/j9017_5.sm nv: 80028 nc: 193474 enctime: 1.49
c File: j9017_5.smnaivebi5.wcnf
c optimal
c final solution cost: 89
c CPU time: 3.864619
s OPTIMUM FOUND

c File: j9017_5.smbi5.wcnf
c optimal
c final solution cost: 89
c CPU time: 0.588849
s OPTIMUM FOUND


rcpsp/heur_output_bi_constraints/Log=5/heurj90.txt
encoding rcpsp/j90.sm/j9017_6.sm nv: 364270 nc: 900487 enctime: 14.13
encoding rcpsp/j90.sm/j9017_6.sm nv: 77380 nc: 188371 enctime: 1.47
c File: j9017_6.smnaivebi5.wcnf
c optimal
c final solution cost: 86
c CPU time: 6.279486
s OPTIMUM FOUND

c File: j9017_6.smbi5.wcnf
c optimal
c final solution cost: 86
c CPU time: 0.868619
s OPTIMUM FOUND


rcpsp/heur_output_bi_constraints/Log=5/heurj90.txt
encoding rcpsp/j90.sm/j9017_7.sm nv: 367284 nc: 891142 enctime: 13.42
encoding rcpsp/j90.sm/j9017_7.sm nv: 72390 nc: 172870 enctime: 1.33
c File: j9017_7.smnaivebi5.wcnf
c optimal
c final solution cost: 74
c CPU time: 5.244214
s OPTIMUM FOUND

c File: j9017_7.smbi5.wcnf
c optimal
c final solution cost: 74
c CPU time: 0.731627
s OPTIMUM FOUND


rcpsp/heur_output_bi_constraints/Log=5/heurj90.txt
encoding rcpsp/j90.sm/j9017_8.sm nv: 338016 nc: 851799 enctime: 13.95
encoding rcpsp/j90.sm/j9017_8.sm nv: 94080 nc: 234336 enctime: 1.87
c File: j9017_8.smnaivebi5.wcnf
c optimal
c final solution cost: 108
c CPU time: 20.917570
s OPTIMUM FOUND

c File: j9017_8.smbi5.wcnf
c optimal
c final solution cost: 108
c CPU time: 0.927162
s OPTIMUM FOUND


rcpsp/heur_output_bi_constraints/Log=5/heurj90.txt
encoding rcpsp/j90.sm/j9017_9.sm nv: 293304 nc: 748047 enctime: 12.39
encoding rcpsp/j90.sm/j9017_9.sm nv: 83022 nc: 209156 enctime: 1.68
c File: j9017_9.smnaivebi5.wcnf
c optimal
c final solution cost: 92
c CPU time: 11.338199
s OPTIMUM FOUND

c File: j9017_9.smbi5.wcnf
c optimal
c final solution cost: 92
c CPU time: 1.694762
s OPTIMUM FOUND


rcpsp/heur_output_bi_constraints/Log=5/heurj90.txt
encoding rcpsp/j90.sm/j901_7.sm nv: 345744 nc: 851142 enctime: 12.90
encoding rcpsp/j90.sm/j901_7.sm nv: 72716 nc: 176134 enctime: 0.89
c File: j901_7.smnaivebi5.wcnf
c optimal
c final solution cost: 84
c CPU time: 32.698629
s OPTIMUM FOUND

c File: j901_7.smbi5.wcnf
c optimal
c final solution cost: 84
c CPU time: 1.028272
s OPTIMUM FOUND


rcpsp/heur_output_bi_constraints/Log=5/heurj90.txt
encoding rcpsp/j90.sm/j9018_10.sm nv: 446985 nc: 1054769 enctime: 15.25
encoding rcpsp/j90.sm/j9018_10.sm nv: 83979 nc: 195293 enctime: 1.49
c File: j9018_10.smnaivebi5.wcnf
c optimal
c final solution cost: 68
c CPU time: 3.450578
s OPTIMUM FOUND

c File: j9018_10.smbi5.wcnf
c optimal
c final solution cost: 68
c CPU time: 0.264591
s OPTIMUM FOUND


rcpsp/heur_output_bi_constraints/Log=5/heurj90.txt
encoding rcpsp/j90.sm/j9018_1.sm nv: 501270 nc: 1198401 enctime: 17.93
encoding rcpsp/j90.sm/j9018_1.sm nv: 99510 nc: 234609 enctime: 1.19
c File: j9018_1.smnaivebi5.wcnf
c optimal
c final solution cost: 90
c CPU time: 3.805360
s OPTIMUM FOUND

c File: j9018_1.smbi5.wcnf
c optimal
c final solution cost: 90
c CPU time: 0.362455
s OPTIMUM FOUND


rcpsp/heur_output_bi_constraints/Log=5/heurj90.txt
encoding rcpsp/j90.sm/j9018_2.sm nv: 445005 nc: 1048740 enctime: 14.86
encoding rcpsp/j90.sm/j9018_2.sm nv: 80011 nc: 185584 enctime: 1.39
c File: j9018_2.smnaivebi5.wcnf
c optimal
c final solution cost: 78
c CPU time: 3.729303
s OPTIMUM FOUND

c File: j9018_2.smbi5.wcnf
c optimal
c final solution cost: 78
c CPU time: 0.269804
s OPTIMUM FOUND


rcpsp/heur_output_bi_constraints/Log=5/heurj90.txt
encoding rcpsp/j90.sm/j9018_3.sm nv: 455088 nc: 1074634 enctime: 15.33
encoding rcpsp/j90.sm/j9018_3.sm nv: 83904 nc: 195107 enctime: 1.46
c File: j9018_3.smnaivebi5.wcnf
c optimal
c final solution cost: 79
c CPU time: 4.013882
s OPTIMUM FOUND

c File: j9018_3.smbi5.wcnf
c optimal
c final solution cost: 79
c CPU time: 0.276967
s OPTIMUM FOUND


rcpsp/heur_output_bi_constraints/Log=5/heurj90.txt
encoding rcpsp/j90.sm/j9018_4.sm nv: 538965 nc: 1266076 enctime: 18.00
encoding rcpsp/j90.sm/j9018_4.sm nv: 110635 nc: 256652 enctime: 1.89
c File: j9018_4.smnaivebi5.wcnf
c optimal
c final solution cost: 98
c CPU time: 4.324363
s OPTIMUM FOUND

c File: j9018_4.smbi5.wcnf
c optimal
c final solution cost: 98
c CPU time: 0.322734
s OPTIMUM FOUND


rcpsp/heur_output_bi_constraints/Log=5/heurj90.txt
encoding rcpsp/j90.sm/j9018_5.sm nv: 429936 nc: 1026405 enctime: 15.34
encoding rcpsp/j90.sm/j9018_5.sm nv: 84800 nc: 199381 enctime: 1.01
c File: j9018_5.smnaivebi5.wcnf
c optimal
c final solution cost: 87
c CPU time: 3.883096
s OPTIMUM FOUND

c File: j9018_5.smbi5.wcnf
c optimal
c final solution cost: 87
c CPU time: 0.286178
s OPTIMUM FOUND


rcpsp/heur_output_bi_constraints/Log=5/heurj90.txt
encoding rcpsp/j90.sm/j9018_6.sm nv: 471225 nc: 1116716 enctime: 16.07
encoding rcpsp/j90.sm/j9018_6.sm nv: 87840 nc: 204972 enctime: 1.55
c File: j9018_6.smnaivebi5.wcnf
c optimal
c final solution cost: 82
c CPU time: 3.975465
s OPTIMUM FOUND

c File: j9018_6.smbi5.wcnf
c optimal
c final solution cost: 82
c CPU time: 0.290480
s OPTIMUM FOUND


rcpsp/heur_output_bi_constraints/Log=5/heurj90.txt
encoding rcpsp/j90.sm/j9018_7.sm nv: 370648 nc: 857522 enctime: 11.49
encoding rcpsp/j90.sm/j9018_7.sm nv: 71904 nc: 164059 enctime: 1.20
c File: j9018_7.smnaivebi5.wcnf
c optimal
c final solution cost: 70
c CPU time: 2.674235
s OPTIMUM FOUND

c File: j9018_7.smbi5.wcnf
c optimal
c final solution cost: 70
c CPU time: 0.192455
s OPTIMUM FOUND


rcpsp/heur_output_bi_constraints/Log=5/heurj90.txt
encoding rcpsp/j90.sm/j9018_8.sm nv: 542270 nc: 1257479 enctime: 16.92
encoding rcpsp/j90.sm/j9018_8.sm nv: 102335 nc: 234161 enctime: 1.70
c File: j9018_8.smnaivebi5.wcnf
c optimal
c final solution cost: 92
c CPU time: 4.314848
s OPTIMUM FOUND

c File: j9018_8.smbi5.wcnf
c optimal
c final solution cost: 92
c CPU time: 0.278286
s OPTIMUM FOUND


rcpsp/heur_output_bi_constraints/Log=5/heurj90.txt
encoding rcpsp/j90.sm/j9018_9.sm nv: 493525 nc: 1121335 enctime: 14.27
encoding rcpsp/j90.sm/j9018_9.sm nv: 72730 nc: 162295 enctime: 1.17
c File: j9018_9.smnaivebi5.wcnf
c optimal
c final solution cost: 63
c CPU time: 3.206718
s OPTIMUM FOUND

c File: j9018_9.smbi5.wcnf
c optimal
c final solution cost: 63
c CPU time: 0.217650
s OPTIMUM FOUND


rcpsp/heur_output_bi_constraints/Log=5/heurj90.txt
encoding rcpsp/j90.sm/j901_8.sm nv: 380712 nc: 958540 enctime: 14.30
encoding rcpsp/j90.sm/j901_8.sm nv: 81432 nc: 201740 enctime: 1.45
c File: j901_8.smnaivebi5.wcnf
c optimal
c final solution cost: 83
c CPU time: 7.374859
s OPTIMUM FOUND

c File: j901_8.smbi5.wcnf
c optimal
c final solution cost: 83
c CPU time: 2.798859
s OPTIMUM FOUND


rcpsp/heur_output_bi_constraints/Log=5/heurj90.txt
encoding rcpsp/j90.sm/j9019_10.sm nv: 589920 nc: 1312588 enctime: 15.89
encoding rcpsp/j90.sm/j9019_10.sm nv: 106923 nc: 234982 enctime: 1.65
c File: j9019_10.smnaivebi5.wcnf
c optimal
c final solution cost: 85
c CPU time: 3.217561
s OPTIMUM FOUND

c File: j9019_10.smbi5.wcnf
c optimal
c final solution cost: 85
c CPU time: 0.250683
s OPTIMUM FOUND


rcpsp/heur_output_bi_constraints/Log=5/heurj90.txt
encoding rcpsp/j90.sm/j9019_1.sm nv: 529659 nc: 1219590 enctime: 16.48
encoding rcpsp/j90.sm/j9019_1.sm nv: 85293 nc: 193286 enctime: 0.94
c File: j9019_1.smnaivebi5.wcnf
c optimal
c final solution cost: 75
c CPU time: 3.646747
s OPTIMUM FOUND

c File: j9019_1.smbi5.wcnf
c optimal
c final solution cost: 75
c CPU time: 0.261963
s OPTIMUM FOUND


rcpsp/heur_output_bi_constraints/Log=5/heurj90.txt
encoding rcpsp/j90.sm/j9019_2.sm nv: 509220 nc: 1140152 enctime: 14.64
encoding rcpsp/j90.sm/j9019_2.sm nv: 80811 nc: 178070 enctime: 0.86
c File: j9019_2.smnaivebi5.wcnf
c optimal
c final solution cost: 67
c CPU time: 2.890127
s OPTIMUM FOUND

c File: j9019_2.smbi5.wcnf
c optimal
c final solution cost: 67
c CPU time: 0.190562
s OPTIMUM FOUND


rcpsp/heur_output_bi_constraints/Log=5/heurj90.txt
encoding rcpsp/j90.sm/j9019_3.sm nv: 566724 nc: 1282715 enctime: 16.67
encoding rcpsp/j90.sm/j9019_3.sm nv: 88764 nc: 197855 enctime: 1.47
c File: j9019_3.smnaivebi5.wcnf
c optimal
c final solution cost: 75
c CPU time: 3.712327
s OPTIMUM FOUND

c File: j9019_3.smbi5.wcnf
c optimal
c final solution cost: 75
c CPU time: 0.223200
s OPTIMUM FOUND


rcpsp/heur_output_bi_constraints/Log=5/heurj90.txt
encoding rcpsp/j90.sm/j9019_4.sm nv: 616512 nc: 1403551 enctime: 18.20
encoding rcpsp/j90.sm/j9019_4.sm nv: 98496 nc: 220975 enctime: 1.66
c File: j9019_4.smnaivebi5.wcnf
c optimal
c final solution cost: 66
c CPU time: 3.560902
s OPTIMUM FOUND

c File: j9019_4.smbi5.wcnf
c optimal
c final solution cost: 66
c CPU time: 0.302276
s OPTIMUM FOUND


rcpsp/heur_output_bi_constraints/Log=5/heurj90.txt
encoding rcpsp/j90.sm/j9019_5.sm nv: 445718 nc: 972704 enctime: 11.38
encoding rcpsp/j90.sm/j9019_5.sm nv: 82950 nc: 178944 enctime: 1.25
c File: j9019_5.smnaivebi5.wcnf
c optimal
c final solution cost: 66
c CPU time: 2.347126
s OPTIMUM FOUND

c File: j9019_5.smbi5.wcnf
c optimal
c final solution cost: 66
c CPU time: 0.214478
s OPTIMUM FOUND


rcpsp/heur_output_bi_constraints/Log=5/heurj90.txt
encoding rcpsp/j90.sm/j9019_6.sm nv: 513080 nc: 1195494 enctime: 16.68
encoding rcpsp/j90.sm/j9019_6.sm nv: 140390 nc: 324285 enctime: 2.34
c File: j9019_6.smnaivebi5.wcnf
c optimal
c final solution cost: 136
c CPU time: 3.276312
s OPTIMUM FOUND

c File: j9019_6.smbi5.wcnf
c optimal
c final solution cost: 136
c CPU time: 0.408571
s OPTIMUM FOUND


rcpsp/heur_output_bi_constraints/Log=5/heurj90.txt
encoding rcpsp/j90.sm/j9019_7.sm nv: 483345 nc: 1098754 enctime: 14.79
encoding rcpsp/j90.sm/j9019_7.sm nv: 75555 nc: 168914 enctime: 0.83
c File: j9019_7.smnaivebi5.wcnf
c optimal
c final solution cost: 62
c CPU time: 3.116239
s OPTIMUM FOUND

c File: j9019_7.smbi5.wcnf
c optimal
c final solution cost: 62
c CPU time: 0.202068
s OPTIMUM FOUND


rcpsp/heur_output_bi_constraints/Log=5/heurj90.txt
encoding rcpsp/j90.sm/j9019_8.sm nv: 521220 nc: 1207433 enctime: 17.09
encoding rcpsp/j90.sm/j9019_8.sm nv: 88914 nc: 202808 enctime: 1.00
c File: j9019_8.smnaivebi5.wcnf
c optimal
c final solution cost: 75
c CPU time: 3.436042
s OPTIMUM FOUND

c File: j9019_8.smbi5.wcnf
c optimal
c final solution cost: 75
c CPU time: 0.244355
s OPTIMUM FOUND


rcpsp/heur_output_bi_constraints/Log=5/heurj90.txt
encoding rcpsp/j90.sm/j9019_9.sm nv: 580482 nc: 1357908 enctime: 19.29
encoding rcpsp/j90.sm/j9019_9.sm nv: 121023 nc: 279831 enctime: 1.45
c File: j9019_9.smnaivebi5.wcnf
c optimal
c final solution cost: 110
c CPU time: 4.499749
s OPTIMUM FOUND

c File: j9019_9.smbi5.wcnf
c optimal
c final solution cost: 110
c CPU time: 0.373160
s OPTIMUM FOUND


rcpsp/heur_output_bi_constraints/Log=5/heurj90.txt
encoding rcpsp/j90.sm/j901_9.sm nv: 360714 nc: 853172 enctime: 11.87
encoding rcpsp/j90.sm/j901_9.sm nv: 71534 nc: 166512 enctime: 1.23
c File: j901_9.smnaivebi5.wcnf
c optimal
c final solution cost: 67
c CPU time: 4.308945
s OPTIMUM FOUND

c File: j901_9.smbi5.wcnf
c optimal
c final solution cost: 67
c CPU time: 0.864459
s OPTIMUM FOUND


rcpsp/heur_output_bi_constraints/Log=5/heurj90.txt
encoding rcpsp/j90.sm/j9020_10.sm nv: 494400 nc: 1155474 enctime: 16.57
encoding rcpsp/j90.sm/j9020_10.sm nv: 93120 nc: 214556 enctime: 1.67
c File: j9020_10.smnaivebi5.wcnf
c optimal
c final solution cost: 86
c CPU time: 3.655943
s OPTIMUM FOUND

c File: j9020_10.smbi5.wcnf
c optimal
c final solution cost: 86
c CPU time: 0.386843
s OPTIMUM FOUND


rcpsp/heur_output_bi_constraints/Log=5/heurj90.txt
encoding rcpsp/j90.sm/j9020_1.sm nv: 664224 nc: 1513529 enctime: 20.65
encoding rcpsp/j90.sm/j9020_1.sm nv: 108669 nc: 244079 enctime: 1.87
c File: j9020_1.smnaivebi5.wcnf
c optimal
c final solution cost: 85
c CPU time: 4.385411
s OPTIMUM FOUND

c File: j9020_1.smbi5.wcnf
c optimal
c final solution cost: 85
c CPU time: 0.361011
s OPTIMUM FOUND


rcpsp/heur_output_bi_constraints/Log=5/heurj90.txt
encoding rcpsp/j90.sm/j9020_2.sm nv: 572142 nc: 1294350 enctime: 17.57
encoding rcpsp/j90.sm/j9020_2.sm nv: 89076 nc: 198357 enctime: 0.96
c File: j9020_2.smnaivebi5.wcnf
c optimal
c final solution cost: 76
c CPU time: 3.581524
s OPTIMUM FOUND

c File: j9020_2.smbi5.wcnf
c optimal
c final solution cost: 76
c CPU time: 0.237518
s OPTIMUM FOUND


rcpsp/heur_output_bi_constraints/Log=5/heurj90.txt
encoding rcpsp/j90.sm/j9020_3.sm nv: 693384 nc: 1549390 enctime: 20.20
encoding rcpsp/j90.sm/j9020_3.sm nv: 116232 nc: 256414 enctime: 1.27
c File: j9020_3.smnaivebi5.wcnf
c optimal
c final solution cost: 75
c CPU time: 3.855417
s OPTIMUM FOUND

c File: j9020_3.smbi5.wcnf
c optimal
c final solution cost: 75
c CPU time: 0.268825
s OPTIMUM FOUND


rcpsp/heur_output_bi_constraints/Log=5/heurj90.txt
encoding rcpsp/j90.sm/j9020_4.sm nv: 613500 nc: 1379876 enctime: 17.91
encoding rcpsp/j90.sm/j9020_4.sm nv: 114111 nc: 253707 enctime: 1.86
c File: j9020_4.smnaivebi5.wcnf
c optimal
c final solution cost: 82
c CPU time: 3.471258
s OPTIMUM FOUND

c File: j9020_4.smbi5.wcnf
c optimal
c final solution cost: 82
c CPU time: 0.276536
s OPTIMUM FOUND


rcpsp/heur_output_bi_constraints/Log=5/heurj90.txt
encoding rcpsp/j90.sm/j9020_5.sm nv: 606900 nc: 1347782 enctime: 16.84
encoding rcpsp/j90.sm/j9020_5.sm nv: 86700 nc: 189470 enctime: 0.93
c File: j9020_5.smnaivebi5.wcnf
c optimal
c final solution cost: 67
c CPU time: 3.318495
s OPTIMUM FOUND

c File: j9020_5.smbi5.wcnf
c optimal
c final solution cost: 67
c CPU time: 0.193701
s OPTIMUM FOUND


rcpsp/heur_output_bi_constraints/Log=5/heurj90.txt
encoding rcpsp/j90.sm/j9020_6.sm nv: 635290 nc: 1419686 enctime: 18.26
encoding rcpsp/j90.sm/j9020_6.sm nv: 105672 nc: 232887 enctime: 1.75
c File: j9020_6.smnaivebi5.wcnf
c optimal
c final solution cost: 78
c CPU time: 3.651683
s OPTIMUM FOUND

c File: j9020_6.smbi5.wcnf
c optimal
c final solution cost: 78
c CPU time: 0.261318
s OPTIMUM FOUND


rcpsp/heur_output_bi_constraints/Log=5/heurj90.txt
encoding rcpsp/j90.sm/j9020_7.sm nv: 672438 nc: 1466457 enctime: 17.74
encoding rcpsp/j90.sm/j9020_7.sm nv: 116034 nc: 250169 enctime: 1.79
c File: j9020_7.smnaivebi5.wcnf
c optimal
c final solution cost: 82
c CPU time: 3.355067
s OPTIMUM FOUND

c File: j9020_7.smbi5.wcnf
c optimal
c final solution cost: 82
c CPU time: 0.239368
s OPTIMUM FOUND


rcpsp/heur_output_bi_constraints/Log=5/heurj90.txt
encoding rcpsp/j90.sm/j9020_8.sm nv: 652540 nc: 1493187 enctime: 20.93
encoding rcpsp/j90.sm/j9020_8.sm nv: 101480 nc: 228551 enctime: 1.12
c File: j9020_8.smnaivebi5.wcnf
c optimal
c final solution cost: 85
c CPU time: 4.106568
s OPTIMUM FOUND

c File: j9020_8.smbi5.wcnf
c optimal
c final solution cost: 85
c CPU time: 0.219433
s OPTIMUM FOUND


rcpsp/heur_output_bi_constraints/Log=5/heurj90.txt
encoding rcpsp/j90.sm/j9020_9.sm nv: 524025 nc: 1139070 enctime: 13.51
encoding rcpsp/j90.sm/j9020_9.sm nv: 96174 nc: 206681 enctime: 1.47
c File: j9020_9.smnaivebi5.wcnf
c optimal
c final solution cost: 76
c CPU time: 2.638052
s OPTIMUM FOUND

c File: j9020_9.smbi5.wcnf
c optimal
c final solution cost: 76
c CPU time: 0.221990
s OPTIMUM FOUND


